p cnf 963 2472
51 -2 -696 0
-51 2 0
-51 696 0
52 -51 -3 0
-52 51 0
-52 3 0
53 -5 -697 0
-53 5 0
-53 697 0
54 -53 -698 0
-54 53 0
-54 698 0
55 -699 -700 0
-55 699 0
-55 700 0
56 -701 -7 0
-56 701 0
-56 7 0
57 -56 -702 0
-57 56 0
-57 702 0
58 -703 -55 0
-58 703 0
-58 55 0
59 -10 -2 0
-59 10 0
-59 2 0
60 -59 -11 0
-60 59 0
-60 11 0
61 -704 -58 0
-61 704 0
-61 58 0
62 -13 -12 0
-62 13 0
-62 12 0
63 -62 -705 0
-63 62 0
-63 705 0
64 -706 -61 0
-64 706 0
-64 61 0
65 -15 -7 0
-65 15 0
-65 7 0
66 -65 -707 0
-66 65 0
-66 707 0
67 -708 -64 0
-67 708 0
-67 64 0
68 -709 -710 0
-68 709 0
-68 710 0
69 -68 -711 0
-69 68 0
-69 711 0
70 -712 -67 0
-70 712 0
-70 67 0
71 -713 -714 0
-71 713 0
-71 714 0
72 -71 -20 0
-72 71 0
-72 20 0
73 -715 -70 0
-73 715 0
-73 70 0
74 -716 -717 0
-74 716 0
-74 717 0
75 -74 -718 0
-75 74 0
-75 718 0
76 -719 -73 0
-76 719 0
-76 73 0
77 -720 -22 0
-77 720 0
-77 22 0
78 -77 -721 0
-78 77 0
-78 721 0
79 -722 -76 0
-79 722 0
-79 76 0
80 -723 -697 0
-80 723 0
-80 697 0
81 -80 -701 0
-81 80 0
-81 701 0
82 -724 -79 0
-82 724 0
-82 79 0
83 -27 -26 0
-83 27 0
-83 26 0
84 -83 -16 0
-84 83 0
-84 16 0
85 -725 -82 0
-85 725 0
-85 82 0
86 -28 -25 0
-86 28 0
-86 25 0
87 -86 -5 0
-87 86 0
-87 5 0
88 -726 -85 0
-88 726 0
-88 85 0
89 -727 -707 0
-89 727 0
-89 707 0
90 -89 -24 0
-90 89 0
-90 24 0
91 -728 -88 0
-91 728 0
-91 88 0
92 -729 -5 0
-92 729 0
-92 5 0
93 -92 -730 0
-93 92 0
-93 730 0
94 -731 -91 0
-94 731 0
-94 91 0
95 -730 -732 0
-95 730 0
-95 732 0
96 -95 -32 0
-96 95 0
-96 32 0
97 -733 -94 0
-97 733 0
-97 94 0
98 -28 -734 0
-98 28 0
-98 734 0
99 -98 -33 0
-99 98 0
-99 33 0
100 -735 -97 0
-100 735 0
-100 97 0
101 -19 -2 0
-101 19 0
-101 2 0
102 -101 -34 0
-102 101 0
-102 34 0
103 -736 -100 0
-103 736 0
-103 100 0
104 -35 -720 0
-104 35 0
-104 720 0
105 -104 -3 0
-105 104 0
-105 3 0
106 -737 -103 0
-106 737 0
-106 103 0
107 -10 -696 0
-107 10 0
-107 696 0
108 -107 -738 0
-108 107 0
-108 738 0
109 -739 -106 0
-109 739 0
-109 106 0
110 -740 -741 0
-110 740 0
-110 741 0
111 -110 -732 0
-111 110 0
-111 732 0
112 -742 -109 0
-112 742 0
-112 109 0
113 -743 -22 0
-113 743 0
-113 22 0
114 -113 -11 0
-114 113 0
-114 11 0
115 -744 -112 0
-115 744 0
-115 112 0
116 -738 -18 0
-116 738 0
-116 18 0
117 -116 -38 0
-117 116 0
-117 38 0
118 -745 -115 0
-118 745 0
-118 115 0
119 -746 -7 0
-119 746 0
-119 7 0
120 -119 -747 0
-120 119 0
-120 747 0
121 -748 -118 0
-121 748 0
-121 118 0
122 -25 -23 0
-122 25 0
-122 23 0
123 -122 -749 0
-123 122 0
-123 749 0
124 -750 -121 0
-124 750 0
-124 121 0
125 -41 -35 0
-125 41 0
-125 35 0
126 -125 -749 0
-126 125 0
-126 749 0
127 -751 -124 0
-127 751 0
-127 124 0
128 -752 -732 0
-128 752 0
-128 732 0
129 -128 -42 0
-129 128 0
-129 42 0
130 -753 -127 0
-130 753 0
-130 127 0
131 -23 -2 0
-131 23 0
-131 2 0
132 -131 -31 0
-132 131 0
-132 31 0
133 -754 -130 0
-133 754 0
-133 130 0
134 -35 -755 0
-134 35 0
-134 755 0
135 -134 -756 0
-135 134 0
-135 756 0
136 -757 -133 0
-136 757 0
-136 133 0
137 -19 -17 0
-137 19 0
-137 17 0
138 -137 -43 0
-138 137 0
-138 43 0
139 -758 -136 0
-139 758 0
-139 136 0
140 -759 -43 0
-140 759 0
-140 43 0
141 -140 -39 0
-141 140 0
-141 39 0
142 -760 -139 0
-142 760 0
-142 139 0
143 -752 -1 0
-143 752 0
-143 1 0
144 -143 -709 0
-144 143 0
-144 709 0
145 -761 -142 0
-145 761 0
-145 142 0
146 -44 -697 0
-146 44 0
-146 697 0
147 -146 -39 0
-147 146 0
-147 39 0
148 -762 -145 0
-148 762 0
-148 145 0
149 -763 -711 0
-149 763 0
-149 711 0
150 -149 -11 0
-150 149 0
-150 11 0
151 -764 -148 0
-151 764 0
-151 148 0
152 -45 -43 0
-152 45 0
-152 43 0
153 -152 -40 0
-153 152 0
-153 40 0
154 -765 -151 0
-154 765 0
-154 151 0
155 -766 -34 0
-155 766 0
-155 34 0
156 -155 -707 0
-156 155 0
-156 707 0
157 -767 -154 0
-157 767 0
-157 154 0
158 -697 -741 0
-158 697 0
-158 741 0
159 -158 -10 0
-159 158 0
-159 10 0
160 -768 -157 0
-160 768 0
-160 157 0
161 -37 -769 0
-161 37 0
-161 769 0
162 -161 -766 0
-162 161 0
-162 766 0
163 -770 -160 0
-163 770 0
-163 160 0
164 -730 -771 0
-164 730 0
-164 771 0
165 -164 -772 0
-165 164 0
-165 772 0
166 -773 -163 0
-166 773 0
-166 163 0
167 -28 -17 0
-167 28 0
-167 17 0
168 -167 -774 0
-168 167 0
-168 774 0
169 -775 -166 0
-169 775 0
-169 166 0
170 -48 -741 0
-170 48 0
-170 741 0
171 -170 -776 0
-171 170 0
-171 776 0
172 -777 -169 0
-172 777 0
-172 169 0
173 -25 -1 0
-173 25 0
-173 1 0
174 -173 -743 0
-174 173 0
-174 743 0
175 -778 -172 0
-175 778 0
-175 172 0
176 -752 -779 0
-176 752 0
-176 779 0
177 -176 -721 0
-177 176 0
-177 721 0
178 -780 -175 0
-178 780 0
-178 175 0
179 -38 -13 0
-179 38 0
-179 13 0
180 -179 -747 0
-180 179 0
-180 747 0
181 -781 -178 0
-181 781 0
-181 178 0
182 -23 -20 0
-182 23 0
-182 20 0
183 -182 -38 0
-183 182 0
-183 38 0
184 -782 -181 0
-184 782 0
-184 181 0
185 -698 -696 0
-185 698 0
-185 696 0
186 -185 -11 0
-186 185 0
-186 11 0
187 -783 -184 0
-187 783 0
-187 184 0
188 -730 -714 0
-188 730 0
-188 714 0
189 -188 -9 0
-189 188 0
-189 9 0
190 -784 -187 0
-190 784 0
-190 187 0
191 -785 -10 0
-191 785 0
-191 10 0
192 -191 -747 0
-192 191 0
-192 747 0
193 -786 -190 0
-193 786 0
-193 190 0
194 -35 -723 0
-194 35 0
-194 723 0
195 -194 -718 0
-195 194 0
-195 718 0
196 -787 -193 0
-196 787 0
-196 193 0
197 -788 -707 0
-197 788 0
-197 707 0
198 -197 -24 0
-198 197 0
-198 24 0
199 -789 -196 0
-199 789 0
-199 196 0
200 -759 -8 0
-200 759 0
-200 8 0
201 -200 -38 0
-201 200 0
-201 38 0
202 -790 -199 0
-202 790 0
-202 199 0
203 -723 -13 0
-203 723 0
-203 13 0
204 -203 -791 0
-204 203 0
-204 791 0
205 -792 -202 0
-205 792 0
-205 202 0
206 -46 -752 0
-206 46 0
-206 752 0
207 -206 -42 0
-207 206 0
-207 42 0
208 -793 -205 0
-208 793 0
-208 205 0
209 -727 -28 0
-209 727 0
-209 28 0
210 -209 -794 0
-210 209 0
-210 794 0
211 -795 -208 0
-211 795 0
-211 208 0
212 -747 -27 0
-212 747 0
-212 27 0
213 -212 -718 0
-213 212 0
-213 718 0
214 -796 -211 0
-214 796 0
-214 211 0
215 -17 -13 0
-215 17 0
-215 13 0
216 -215 -43 0
-216 215 0
-216 43 0
217 -797 -214 0
-217 797 0
-217 214 0
218 -729 -23 0
-218 729 0
-218 23 0
219 -218 -798 0
-219 218 0
-219 798 0
220 -799 -217 0
-220 799 0
-220 217 0
221 -798 -755 0
-221 798 0
-221 755 0
222 -221 -21 0
-222 221 0
-222 21 0
223 -800 -220 0
-223 800 0
-223 220 0
224 -15 -8 0
-224 15 0
-224 8 0
225 -224 -49 0
-225 224 0
-225 49 0
226 -801 -223 0
-226 801 0
-226 223 0
227 -743 -734 0
-227 743 0
-227 734 0
228 -227 -39 0
-228 227 0
-228 39 0
229 -802 -226 0
-229 802 0
-229 226 0
230 -28 -723 0
-230 28 0
-230 723 0
231 -230 -24 0
-231 230 0
-231 24 0
232 -803 -229 0
-232 803 0
-232 229 0
233 -763 -7 0
-233 763 0
-233 7 0
234 -233 -702 0
-234 233 0
-234 702 0
235 -804 -232 0
-235 804 0
-235 232 0
236 -36 -755 0
-236 36 0
-236 755 0
237 -236 -11 0
-237 236 0
-237 11 0
238 -805 -235 0
-238 805 0
-238 235 0
239 -40 -13 0
-239 40 0
-239 13 0
240 -239 -38 0
-240 239 0
-240 38 0
241 -806 -238 0
-241 806 0
-241 238 0
242 -807 -33 0
-242 807 0
-242 33 0
243 -242 -27 0
-243 242 0
-243 27 0
244 -808 -241 0
-244 808 0
-244 241 0
245 -27 -714 0
-245 27 0
-245 714 0
246 -245 -20 0
-246 245 0
-246 20 0
247 -809 -244 0
-247 809 0
-247 244 0
248 -36 -729 0
-248 36 0
-248 729 0
249 -248 -19 0
-249 248 0
-249 19 0
250 -810 -247 0
-250 810 0
-250 247 0
251 -41 -697 0
-251 41 0
-251 697 0
252 -251 -3 0
-252 251 0
-252 3 0
253 -811 -250 0
-253 811 0
-253 250 0
254 -729 -732 0
-254 729 0
-254 732 0
255 -254 -39 0
-255 254 0
-255 39 0
256 -812 -253 0
-256 812 0
-256 253 0
257 -740 -12 0
-257 740 0
-257 12 0
258 -257 -756 0
-258 257 0
-258 756 0
259 -813 -256 0
-259 813 0
-259 256 0
260 -774 -37 0
-260 774 0
-260 37 0
261 -260 -34 0
-261 260 0
-261 34 0
262 -814 -259 0
-262 814 0
-262 259 0
263 -815 -15 0
-263 815 0
-263 15 0
264 -263 -21 0
-264 263 0
-264 21 0
265 -816 -262 0
-265 816 0
-265 262 0
266 -815 -723 0
-266 815 0
-266 723 0
267 -266 -9 0
-267 266 0
-267 9 0
268 -817 -265 0
-268 817 0
-268 265 0
269 -30 -27 0
-269 30 0
-269 27 0
270 -269 -721 0
-270 269 0
-270 721 0
271 -818 -268 0
-271 818 0
-271 268 0
272 -766 -22 0
-272 766 0
-272 22 0
273 -272 -42 0
-273 272 0
-273 42 0
274 -819 -271 0
-274 819 0
-274 271 0
275 -257 -27 0
-275 257 0
-275 27 0
276 -820 -274 0
-276 820 0
-276 274 0
277 -49 -701 0
-277 49 0
-277 701 0
278 -277 -38 0
-278 277 0
-278 38 0
279 -821 -276 0
-279 821 0
-279 276 0
280 -23 -714 0
-280 23 0
-280 714 0
281 -280 -729 0
-281 280 0
-281 729 0
282 -822 -279 0
-282 822 0
-282 279 0
283 -39 -12 0
-283 39 0
-283 12 0
284 -283 -716 0
-284 283 0
-284 716 0
285 -823 -282 0
-285 823 0
-285 282 0
286 -37 -710 0
-286 37 0
-286 710 0
287 -286 -755 0
-287 286 0
-287 755 0
288 -824 -285 0
-288 824 0
-288 285 0
289 -720 -1 0
-289 720 0
-289 1 0
290 -289 -798 0
-290 289 0
-290 798 0
291 -825 -288 0
-291 825 0
-291 288 0
292 -729 -15 0
-292 729 0
-292 15 0
293 -292 -3 0
-293 292 0
-293 3 0
294 -826 -291 0
-294 826 0
-294 291 0
295 -807 -756 0
-295 807 0
-295 756 0
296 -295 -749 0
-296 295 0
-296 749 0
297 -827 -294 0
-297 827 0
-297 294 0
298 -828 -7 0
-298 828 0
-298 7 0
299 -298 -766 0
-299 298 0
-299 766 0
300 -829 -297 0
-300 829 0
-300 297 0
301 -734 -12 0
-301 734 0
-301 12 0
302 -301 -711 0
-302 301 0
-302 711 0
303 -830 -300 0
-303 830 0
-303 300 0
304 -47 -13 0
-304 47 0
-304 13 0
305 -304 -738 0
-305 304 0
-305 738 0
306 -831 -303 0
-306 831 0
-306 303 0
307 -717 -714 0
-307 717 0
-307 714 0
308 -307 -785 0
-308 307 0
-308 785 0
309 -832 -306 0
-309 832 0
-309 306 0
310 -752 -23 0
-310 752 0
-310 23 0
311 -310 -798 0
-311 310 0
-311 798 0
312 -833 -309 0
-312 833 0
-312 309 0
313 -828 -752 0
-313 828 0
-313 752 0
314 -313 -759 0
-314 313 0
-314 759 0
315 -834 -312 0
-315 834 0
-315 312 0
316 -36 -713 0
-316 36 0
-316 713 0
317 -316 -34 0
-317 316 0
-317 34 0
318 -835 -315 0
-318 835 0
-318 315 0
319 -31 -1 0
-319 31 0
-319 1 0
320 -319 -716 0
-320 319 0
-320 716 0
321 -836 -318 0
-321 836 0
-321 318 0
322 -741 -696 0
-322 741 0
-322 696 0
323 -322 -43 0
-323 322 0
-323 43 0
324 -837 -321 0
-324 837 0
-324 321 0
325 -807 -763 0
-325 807 0
-325 763 0
326 -325 -19 0
-326 325 0
-326 19 0
327 -838 -324 0
-327 838 0
-327 324 0
328 -8 -794 0
-328 8 0
-328 794 0
329 -328 -743 0
-329 328 0
-329 743 0
330 -839 -327 0
-330 839 0
-330 327 0
331 -711 -709 0
-331 711 0
-331 709 0
332 -331 -49 0
-332 331 0
-332 49 0
333 -840 -330 0
-333 840 0
-333 330 0
334 -776 -1 0
-334 776 0
-334 1 0
335 -334 -9 0
-335 334 0
-335 9 0
336 -841 -333 0
-336 841 0
-336 333 0
337 -714 -698 0
-337 714 0
-337 698 0
338 -337 -743 0
-338 337 0
-338 743 0
339 -842 -336 0
-339 842 0
-339 336 0
340 -44 -13 0
-340 44 0
-340 13 0
341 -340 -31 0
-341 340 0
-341 31 0
342 -843 -339 0
-342 843 0
-342 339 0
343 -734 -7 0
-343 734 0
-343 7 0
344 -343 -707 0
-344 343 0
-344 707 0
345 -844 -342 0
-345 844 0
-345 342 0
346 -26 -711 0
-346 26 0
-346 711 0
347 -346 -39 0
-347 346 0
-347 39 0
348 -845 -345 0
-348 845 0
-348 345 0
349 -92 -33 0
-349 92 0
-349 33 0
350 -846 -348 0
-350 846 0
-350 348 0
351 -798 -701 0
-351 798 0
-351 701 0
352 -351 -721 0
-352 351 0
-352 721 0
353 -847 -350 0
-353 847 0
-353 350 0
354 -723 -713 0
-354 723 0
-354 713 0
355 -354 -35 0
-355 354 0
-355 35 0
356 -848 -353 0
-356 848 0
-356 353 0
357 -697 -2 0
-357 697 0
-357 2 0
358 -357 -716 0
-358 357 0
-358 716 0
359 -849 -356 0
-359 849 0
-359 356 0
360 -740 -30 0
-360 740 0
-360 30 0
361 -360 -738 0
-361 360 0
-361 738 0
362 -850 -359 0
-362 850 0
-362 359 0
363 -29 -13 0
-363 29 0
-363 13 0
364 -363 -39 0
-364 363 0
-364 39 0
365 -851 -362 0
-365 851 0
-365 362 0
366 -747 -696 0
-366 747 0
-366 696 0
367 -366 -11 0
-367 366 0
-367 11 0
368 -852 -365 0
-368 852 0
-368 365 0
369 -12 -10 0
-369 12 0
-369 10 0
370 -369 -40 0
-370 369 0
-370 40 0
371 -853 -368 0
-371 853 0
-371 368 0
372 -18 -794 0
-372 18 0
-372 794 0
373 -372 -749 0
-373 372 0
-373 749 0
374 -854 -371 0
-374 854 0
-374 371 0
375 -730 -727 0
-375 730 0
-375 727 0
376 -375 -785 0
-376 375 0
-376 785 0
377 -855 -374 0
-377 855 0
-377 374 0
378 -37 -723 0
-378 37 0
-378 723 0
379 -378 -779 0
-379 378 0
-379 779 0
380 -856 -377 0
-380 856 0
-380 377 0
381 -788 -697 0
-381 788 0
-381 697 0
382 -381 -779 0
-382 381 0
-382 779 0
383 -857 -380 0
-383 857 0
-383 380 0
384 -720 -7 0
-384 720 0
-384 7 0
385 -384 -785 0
-385 384 0
-385 785 0
386 -858 -383 0
-386 858 0
-386 383 0
387 -734 -707 0
-387 734 0
-387 707 0
388 -387 -11 0
-388 387 0
-388 11 0
389 -859 -386 0
-389 859 0
-389 386 0
390 -791 -17 0
-390 791 0
-390 17 0
391 -390 -743 0
-391 390 0
-391 743 0
392 -860 -389 0
-392 860 0
-392 389 0
393 -755 -28 0
-393 755 0
-393 28 0
394 -393 -716 0
-394 393 0
-394 716 0
395 -861 -392 0
-395 861 0
-395 392 0
396 -36 -5 0
-396 36 0
-396 5 0
397 -396 -32 0
-397 396 0
-397 32 0
398 -862 -395 0
-398 862 0
-398 395 0
399 -771 -27 0
-399 771 0
-399 27 0
400 -399 -756 0
-400 399 0
-400 756 0
401 -863 -398 0
-401 863 0
-401 398 0
402 -31 -6 0
-402 31 0
-402 6 0
403 -402 -718 0
-403 402 0
-403 718 0
404 -864 -401 0
-404 864 0
-404 401 0
405 -104 -721 0
-405 104 0
-405 721 0
406 -865 -404 0
-406 865 0
-406 404 0
407 -771 -769 0
-407 771 0
-407 769 0
408 -407 -807 0
-408 407 0
-408 807 0
409 -866 -406 0
-409 866 0
-409 406 0
410 -701 -779 0
-410 701 0
-410 779 0
411 -410 -11 0
-411 410 0
-411 11 0
412 -867 -409 0
-412 867 0
-412 409 0
413 -37 -28 0
-413 37 0
-413 28 0
414 -413 -718 0
-414 413 0
-414 718 0
415 -868 -412 0
-415 868 0
-415 412 0
416 -705 -7 0
-416 705 0
-416 7 0
417 -416 -743 0
-417 416 0
-417 743 0
418 -869 -415 0
-418 869 0
-418 415 0
419 -741 -1 0
-419 741 0
-419 1 0
420 -419 -5 0
-420 419 0
-420 5 0
421 -870 -418 0
-421 870 0
-421 418 0
422 -828 -12 0
-422 828 0
-422 12 0
423 -422 -16 0
-423 422 0
-423 16 0
424 -871 -421 0
-424 871 0
-424 421 0
425 -705 -10 0
-425 705 0
-425 10 0
426 -425 -763 0
-426 425 0
-426 763 0
427 -872 -424 0
-427 872 0
-427 424 0
428 -32 -22 0
-428 32 0
-428 22 0
429 -428 -33 0
-429 428 0
-429 33 0
430 -873 -427 0
-430 873 0
-430 427 0
431 -8 -6 0
-431 8 0
-431 6 0
432 -431 -772 0
-432 431 0
-432 772 0
433 -874 -430 0
-433 874 0
-433 430 0
434 -766 -7 0
-434 766 0
-434 7 0
435 -434 -3 0
-435 434 0
-435 3 0
436 -875 -433 0
-436 875 0
-436 433 0
437 -31 -696 0
-437 31 0
-437 696 0
438 -437 -743 0
-438 437 0
-438 743 0
439 -876 -436 0
-439 876 0
-439 436 0
440 -756 -1 0
-440 756 0
-440 1 0
441 -440 -702 0
-441 440 0
-441 702 0
442 -877 -439 0
-442 877 0
-442 439 0
443 -428 -3 0
-443 428 0
-443 3 0
444 -878 -442 0
-444 878 0
-444 442 0
445 -47 -763 0
-445 47 0
-445 763 0
446 -445 -794 0
-446 445 0
-446 794 0
447 -879 -444 0
-447 879 0
-447 444 0
448 -38 -741 0
-448 38 0
-448 741 0
449 -448 -721 0
-449 448 0
-449 721 0
450 -880 -447 0
-450 880 0
-450 447 0
451 -769 -5 0
-451 769 0
-451 5 0
452 -451 -772 0
-452 451 0
-452 772 0
453 -881 -450 0
-453 881 0
-453 450 0
454 -28 -3 0
-454 28 0
-454 3 0
455 -454 -21 0
-455 454 0
-455 21 0
456 -882 -453 0
-456 882 0
-456 453 0
457 -769 -10 0
-457 769 0
-457 10 0
458 -457 -31 0
-458 457 0
-458 31 0
459 -883 -456 0
-459 883 0
-459 456 0
460 -50 -47 0
-460 50 0
-460 47 0
461 -460 -707 0
-461 460 0
-461 707 0
462 -884 -459 0
-462 884 0
-462 459 0
463 -33 -31 0
-463 33 0
-463 31 0
464 -463 -747 0
-464 463 0
-464 747 0
465 -885 -462 0
-465 885 0
-465 462 0
466 -44 -28 0
-466 44 0
-466 28 0
467 -466 -10 0
-467 466 0
-467 10 0
468 -886 -465 0
-468 886 0
-468 465 0
469 -34 -746 0
-469 34 0
-469 746 0
470 -469 -756 0
-470 469 0
-470 756 0
471 -887 -468 0
-471 887 0
-471 468 0
472 -37 -720 0
-472 37 0
-472 720 0
473 -472 -8 0
-473 472 0
-473 8 0
474 -888 -471 0
-474 888 0
-474 471 0
475 -48 -12 0
-475 48 0
-475 12 0
476 -475 -35 0
-476 475 0
-476 35 0
477 -889 -474 0
-477 889 0
-477 474 0
478 -44 -746 0
-478 44 0
-478 746 0
479 -478 -33 0
-479 478 0
-479 33 0
480 -890 -477 0
-480 890 0
-480 477 0
481 -50 -20 0
-481 50 0
-481 20 0
482 -481 -38 0
-482 481 0
-482 38 0
483 -891 -480 0
-483 891 0
-483 480 0
484 -13 -697 0
-484 13 0
-484 697 0
485 -484 -701 0
-485 484 0
-485 701 0
486 -892 -483 0
-486 892 0
-486 483 0
487 -763 -14 0
-487 763 0
-487 14 0
488 -487 -755 0
-488 487 0
-488 755 0
489 -893 -486 0
-489 893 0
-489 486 0
490 -31 -29 0
-490 31 0
-490 29 0
491 -490 -16 0
-491 490 0
-491 16 0
492 -894 -489 0
-492 894 0
-492 489 0
493 -729 -20 0
-493 729 0
-493 20 0
494 -493 -798 0
-494 493 0
-494 798 0
495 -895 -492 0
-495 895 0
-495 492 0
496 -33 -713 0
-496 33 0
-496 713 0
497 -496 -49 0
-497 496 0
-497 49 0
498 -896 -495 0
-498 896 0
-498 495 0
499 -48 -696 0
-499 48 0
-499 696 0
500 -499 -713 0
-500 499 0
-500 713 0
501 -897 -498 0
-501 897 0
-501 498 0
502 -785 -16 0
-502 785 0
-502 16 0
503 -502 -749 0
-503 502 0
-503 749 0
504 -898 -501 0
-504 898 0
-504 501 0
505 -17 -769 0
-505 17 0
-505 769 0
506 -505 -766 0
-506 505 0
-506 766 0
507 -899 -504 0
-507 899 0
-507 504 0
508 -759 -18 0
-508 759 0
-508 18 0
509 -508 -43 0
-509 508 0
-509 43 0
510 -900 -507 0
-510 900 0
-510 507 0
511 -45 -794 0
-511 45 0
-511 794 0
512 -511 -747 0
-512 511 0
-512 747 0
513 -901 -510 0
-513 901 0
-513 510 0
514 -766 -35 0
-514 766 0
-514 35 0
515 -514 -791 0
-515 514 0
-515 791 0
516 -902 -513 0
-516 902 0
-516 513 0
517 -19 -717 0
-517 19 0
-517 717 0
518 -517 -718 0
-518 517 0
-518 718 0
519 -903 -516 0
-519 903 0
-519 516 0
520 -740 -734 0
-520 740 0
-520 734 0
521 -520 -46 0
-521 520 0
-521 46 0
522 -904 -519 0
-522 904 0
-522 519 0
523 -717 -701 0
-523 717 0
-523 701 0
524 -523 -779 0
-524 523 0
-524 779 0
525 -905 -522 0
-525 905 0
-525 522 0
526 -33 -28 0
-526 33 0
-526 28 0
527 -526 -721 0
-527 526 0
-527 721 0
528 -906 -525 0
-528 906 0
-528 525 0
529 -37 -10 0
-529 37 0
-529 10 0
530 -529 -3 0
-530 529 0
-530 3 0
531 -907 -528 0
-531 907 0
-531 528 0
532 -776 -20 0
-532 776 0
-532 20 0
533 -532 -702 0
-533 532 0
-533 702 0
534 -908 -531 0
-534 908 0
-534 531 0
535 -22 -698 0
-535 22 0
-535 698 0
536 -535 -49 0
-536 535 0
-536 49 0
537 -909 -534 0
-537 909 0
-537 534 0
538 -727 -723 0
-538 727 0
-538 723 0
539 -538 -34 0
-539 538 0
-539 34 0
540 -910 -537 0
-540 910 0
-540 537 0
541 -45 -7 0
-541 45 0
-541 7 0
542 -541 -36 0
-542 541 0
-542 36 0
543 -911 -540 0
-543 911 0
-543 540 0
544 -756 -15 0
-544 756 0
-544 15 0
545 -544 -49 0
-545 544 0
-545 49 0
546 -912 -543 0
-546 912 0
-546 543 0
547 -734 -714 0
-547 734 0
-547 714 0
548 -547 -6 0
-548 547 0
-548 6 0
549 -913 -546 0
-549 913 0
-549 546 0
550 -740 -22 0
-550 740 0
-550 22 0
551 -550 -40 0
-551 550 0
-551 40 0
552 -914 -549 0
-552 914 0
-552 549 0
553 -42 -717 0
-553 42 0
-553 717 0
554 -553 -746 0
-554 553 0
-554 746 0
555 -915 -552 0
-555 915 0
-555 552 0
556 -18 -16 0
-556 18 0
-556 16 0
557 -556 -38 0
-557 556 0
-557 38 0
558 -916 -555 0
-558 916 0
-558 555 0
559 -730 -702 0
-559 730 0
-559 702 0
560 -559 -21 0
-560 559 0
-560 21 0
561 -917 -558 0
-561 917 0
-561 558 0
562 -30 -23 0
-562 30 0
-562 23 0
563 -562 -10 0
-563 562 0
-563 10 0
564 -918 -561 0
-564 918 0
-564 561 0
565 -40 -27 0
-565 40 0
-565 27 0
566 -565 -21 0
-566 565 0
-566 21 0
567 -919 -564 0
-567 919 0
-567 564 0
568 -752 -771 0
-568 752 0
-568 771 0
569 -568 -22 0
-569 568 0
-569 22 0
570 -920 -567 0
-570 920 0
-570 567 0
571 -759 -2 0
-571 759 0
-571 2 0
572 -571 -14 0
-572 571 0
-572 14 0
573 -921 -570 0
-573 921 0
-573 570 0
574 -23 -6 0
-574 23 0
-574 6 0
575 -574 -33 0
-575 574 0
-575 33 0
576 -922 -573 0
-576 922 0
-576 573 0
577 -28 -2 0
-577 28 0
-577 2 0
578 -577 -30 0
-578 577 0
-578 30 0
579 -923 -576 0
-579 923 0
-579 576 0
580 -27 -713 0
-580 27 0
-580 713 0
581 -580 -20 0
-581 580 0
-581 20 0
582 -924 -579 0
-582 924 0
-582 579 0
583 -717 -5 0
-583 717 0
-583 5 0
584 -583 -43 0
-584 583 0
-584 43 0
585 -925 -582 0
-585 925 0
-585 582 0
586 -19 -714 0
-586 19 0
-586 714 0
587 -586 -772 0
-587 586 0
-587 772 0
588 -926 -585 0
-588 926 0
-588 585 0
589 -791 -720 0
-589 791 0
-589 720 0
590 -589 -785 0
-590 589 0
-590 785 0
591 -927 -588 0
-591 927 0
-591 588 0
592 -774 -27 0
-592 774 0
-592 27 0
593 -592 -40 0
-593 592 0
-593 40 0
594 -928 -591 0
-594 928 0
-594 591 0
595 -815 -720 0
-595 815 0
-595 720 0
596 -595 -16 0
-596 595 0
-596 16 0
597 -929 -594 0
-597 929 0
-597 594 0
598 -26 -788 0
-598 26 0
-598 788 0
599 -598 -23 0
-599 598 0
-599 23 0
600 -930 -597 0
-600 930 0
-600 597 0
601 -788 -701 0
-601 788 0
-601 701 0
602 -601 -35 0
-602 601 0
-602 35 0
603 -931 -600 0
-603 931 0
-603 600 0
604 -32 -714 0
-604 32 0
-604 714 0
605 -604 -747 0
-605 604 0
-605 747 0
606 -932 -603 0
-606 932 0
-606 603 0
607 -37 -25 0
-607 37 0
-607 25 0
608 -607 -3 0
-608 607 0
-608 3 0
609 -933 -606 0
-609 933 0
-609 606 0
610 -734 -696 0
-610 734 0
-610 696 0
611 -610 -9 0
-611 610 0
-611 9 0
612 -934 -609 0
-612 934 0
-612 609 0
613 -44 -701 0
-613 44 0
-613 701 0
614 -613 -49 0
-614 613 0
-614 49 0
615 -935 -612 0
-615 935 0
-615 612 0
616 -756 -709 0
-616 756 0
-616 709 0
617 -616 -20 0
-617 616 0
-617 20 0
618 -936 -615 0
-618 936 0
-618 615 0
619 -774 -26 0
-619 774 0
-619 26 0
620 -619 -713 0
-620 619 0
-620 713 0
621 -937 -618 0
-621 937 0
-621 618 0
622 -20 -710 0
-622 20 0
-622 710 0
623 -622 -38 0
-623 622 0
-623 38 0
624 -938 -621 0
-624 938 0
-624 621 0
625 -13 -698 0
-625 13 0
-625 698 0
626 -625 -20 0
-626 625 0
-626 20 0
627 -939 -624 0
-627 939 0
-627 624 0
628 -37 -2 0
-628 37 0
-628 2 0
629 -628 -709 0
-629 628 0
-629 709 0
630 -940 -627 0
-630 940 0
-630 627 0
631 -45 -22 0
-631 45 0
-631 22 0
632 -631 -718 0
-632 631 0
-632 718 0
633 -941 -630 0
-633 941 0
-633 630 0
634 -40 -709 0
-634 40 0
-634 709 0
635 -634 -38 0
-635 634 0
-635 38 0
636 -942 -633 0
-636 942 0
-636 633 0
637 -45 -698 0
-637 45 0
-637 698 0
638 -637 -746 0
-638 637 0
-638 746 0
639 -943 -636 0
-639 943 0
-639 636 0
640 -360 -9 0
-640 360 0
-640 9 0
641 -944 -639 0
-641 944 0
-641 639 0
642 -43 -785 0
-642 43 0
-642 785 0
643 -642 -721 0
-643 642 0
-643 721 0
644 -945 -641 0
-644 945 0
-644 641 0
645 -31 -785 0
-645 31 0
-645 785 0
646 -645 -38 0
-646 645 0
-646 38 0
647 -946 -644 0
-647 946 0
-647 644 0
648 -788 -15 0
-648 788 0
-648 15 0
649 -648 -756 0
-649 648 0
-649 756 0
650 -947 -647 0
-650 947 0
-650 647 0
651 -224 -40 0
-651 224 0
-651 40 0
652 -948 -650 0
-652 948 0
-652 650 0
653 -18 -696 0
-653 18 0
-653 696 0
654 -653 -3 0
-654 653 0
-654 3 0
655 -949 -652 0
-655 949 0
-655 652 0
656 -45 -8 0
-656 45 0
-656 8 0
657 -656 -779 0
-657 656 0
-657 779 0
658 -950 -655 0
-658 950 0
-658 655 0
659 -28 -18 0
-659 28 0
-659 18 0
660 -659 -729 0
-660 659 0
-660 729 0
661 -951 -658 0
-661 951 0
-661 658 0
662 -31 -729 0
-662 31 0
-662 729 0
663 -662 -43 0
-663 662 0
-663 43 0
664 -952 -661 0
-664 952 0
-664 661 0
665 -22 -710 0
-665 22 0
-665 710 0
666 -665 -791 0
-666 665 0
-666 791 0
667 -953 -664 0
-667 953 0
-667 664 0
668 -4 -2 0
-668 4 0
-668 2 0
669 -668 -747 0
-669 668 0
-669 747 0
670 -954 -667 0
-670 954 0
-670 667 0
671 -233 -36 0
-671 233 0
-671 36 0
672 -955 -670 0
-672 955 0
-672 670 0
673 -34 -6 0
-673 34 0
-673 6 0
674 -673 -716 0
-674 673 0
-674 716 0
675 -956 -672 0
-675 956 0
-675 672 0
676 -732 -714 0
-676 732 0
-676 714 0
677 -676 -49 0
-677 676 0
-677 49 0
678 -957 -675 0
-678 957 0
-678 675 0
679 -26 -705 0
-679 26 0
-679 705 0
680 -679 -19 0
-680 679 0
-680 19 0
681 -958 -678 0
-681 958 0
-681 678 0
682 -766 -42 0
-682 766 0
-682 42 0
683 -682 -16 0
-683 682 0
-683 16 0
684 -959 -681 0
-684 959 0
-684 681 0
685 -46 -794 0
-685 46 0
-685 794 0
686 -685 -50 0
-686 685 0
-686 50 0
687 -960 -684 0
-687 960 0
-687 684 0
688 -763 -1 0
-688 763 0
-688 1 0
689 -688 -707 0
-689 688 0
-689 707 0
690 -961 -687 0
-690 961 0
-690 687 0
691 -553 -3 0
-691 553 0
-691 3 0
692 -962 -690 0
-692 962 0
-692 690 0
693 -774 -794 0
-693 774 0
-693 794 0
694 -693 -755 0
-694 693 0
-694 755 0
695 -963 -692 0
-695 963 0
-695 692 0
-696 -1 0
696 1 0
-697 -4 0
697 4 0
-698 -6 0
698 6 0
-699 -54 0
699 54 0
-700 -52 0
700 52 0
-701 -8 0
701 8 0
-702 -9 0
702 9 0
-703 -57 0
703 57 0
-704 -60 0
704 60 0
-705 -14 0
705 14 0
-706 -63 0
706 63 0
-707 -16 0
707 16 0
-708 -66 0
708 66 0
-709 -18 0
709 18 0
-710 -17 0
710 17 0
-711 -19 0
711 19 0
-712 -69 0
712 69 0
-713 -10 0
713 10 0
-714 -7 0
714 7 0
-715 -72 0
715 72 0
-716 -21 0
716 21 0
-717 -15 0
717 15 0
-718 -11 0
718 11 0
-719 -75 0
719 75 0
-720 -23 0
720 23 0
-721 -24 0
721 24 0
-722 -78 0
722 78 0
-723 -25 0
723 25 0
-724 -81 0
724 81 0
-725 -84 0
725 84 0
-726 -87 0
726 87 0
-727 -29 0
727 29 0
-728 -90 0
728 90 0
-729 -30 0
729 30 0
-730 -31 0
730 31 0
-731 -93 0
731 93 0
-732 -13 0
732 13 0
-733 -96 0
733 96 0
-734 -26 0
734 26 0
-735 -99 0
735 99 0
-736 -102 0
736 102 0
-737 -105 0
737 105 0
-738 -36 0
738 36 0
-739 -108 0
739 108 0
-740 -37 0
740 37 0
-741 -2 0
741 2 0
-742 -111 0
742 111 0
-743 -38 0
743 38 0
-744 -114 0
744 114 0
-745 -117 0
745 117 0
-746 -32 0
746 32 0
-747 -39 0
747 39 0
-748 -120 0
748 120 0
-749 -40 0
749 40 0
-750 -123 0
750 123 0
-751 -126 0
751 126 0
-752 -41 0
752 41 0
-753 -129 0
753 129 0
-754 -132 0
754 132 0
-755 -34 0
755 34 0
-756 -43 0
756 43 0
-757 -135 0
757 135 0
-758 -138 0
758 138 0
-759 -44 0
759 44 0
-760 -141 0
760 141 0
-761 -144 0
761 144 0
-762 -147 0
762 147 0
-763 -35 0
763 35 0
-764 -150 0
764 150 0
-765 -153 0
765 153 0
-766 -46 0
766 46 0
-767 -156 0
767 156 0
-768 -159 0
768 159 0
-769 -12 0
769 12 0
-770 -162 0
770 162 0
-771 -28 0
771 28 0
-772 -27 0
772 27 0
-773 -165 0
773 165 0
-774 -47 0
774 47 0
-775 -168 0
775 168 0
-776 -42 0
776 42 0
-777 -171 0
777 171 0
-778 -174 0
778 174 0
-779 -3 0
779 3 0
-780 -177 0
780 177 0
-781 -180 0
781 180 0
-782 -183 0
782 183 0
-783 -186 0
783 186 0
-784 -189 0
784 189 0
-785 -20 0
785 20 0
-786 -192 0
786 192 0
-787 -195 0
787 195 0
-788 -22 0
788 22 0
-789 -198 0
789 198 0
-790 -201 0
790 201 0
-791 -33 0
791 33 0
-792 -204 0
792 204 0
-793 -207 0
793 207 0
-794 -5 0
794 5 0
-795 -210 0
795 210 0
-796 -213 0
796 213 0
-797 -216 0
797 216 0
-798 -49 0
798 49 0
-799 -219 0
799 219 0
-800 -222 0
800 222 0
-801 -225 0
801 225 0
-802 -228 0
802 228 0
-803 -231 0
803 231 0
-804 -234 0
804 234 0
-805 -237 0
805 237 0
-806 -240 0
806 240 0
-807 -48 0
807 48 0
-808 -243 0
808 243 0
-809 -246 0
809 246 0
-810 -249 0
810 249 0
-811 -252 0
811 252 0
-812 -255 0
812 255 0
-813 -258 0
813 258 0
-814 -261 0
814 261 0
-815 -50 0
815 50 0
-816 -264 0
816 264 0
-817 -267 0
817 267 0
-818 -270 0
818 270 0
-819 -273 0
819 273 0
-820 -275 0
820 275 0
-821 -278 0
821 278 0
-822 -281 0
822 281 0
-823 -284 0
823 284 0
-824 -287 0
824 287 0
-825 -290 0
825 290 0
-826 -293 0
826 293 0
-827 -296 0
827 296 0
-828 -45 0
828 45 0
-829 -299 0
829 299 0
-830 -302 0
830 302 0
-831 -305 0
831 305 0
-832 -308 0
832 308 0
-833 -311 0
833 311 0
-834 -314 0
834 314 0
-835 -317 0
835 317 0
-836 -320 0
836 320 0
-837 -323 0
837 323 0
-838 -326 0
838 326 0
-839 -329 0
839 329 0
-840 -332 0
840 332 0
-841 -335 0
841 335 0
-842 -338 0
842 338 0
-843 -341 0
843 341 0
-844 -344 0
844 344 0
-845 -347 0
845 347 0
-846 -349 0
846 349 0
-847 -352 0
847 352 0
-848 -355 0
848 355 0
-849 -358 0
849 358 0
-850 -361 0
850 361 0
-851 -364 0
851 364 0
-852 -367 0
852 367 0
-853 -370 0
853 370 0
-854 -373 0
854 373 0
-855 -376 0
855 376 0
-856 -379 0
856 379 0
-857 -382 0
857 382 0
-858 -385 0
858 385 0
-859 -388 0
859 388 0
-860 -391 0
860 391 0
-861 -394 0
861 394 0
-862 -397 0
862 397 0
-863 -400 0
863 400 0
-864 -403 0
864 403 0
-865 -405 0
865 405 0
-866 -408 0
866 408 0
-867 -411 0
867 411 0
-868 -414 0
868 414 0
-869 -417 0
869 417 0
-870 -420 0
870 420 0
-871 -423 0
871 423 0
-872 -426 0
872 426 0
-873 -429 0
873 429 0
-874 -432 0
874 432 0
-875 -435 0
875 435 0
-876 -438 0
876 438 0
-877 -441 0
877 441 0
-878 -443 0
878 443 0
-879 -446 0
879 446 0
-880 -449 0
880 449 0
-881 -452 0
881 452 0
-882 -455 0
882 455 0
-883 -458 0
883 458 0
-884 -461 0
884 461 0
-885 -464 0
885 464 0
-886 -467 0
886 467 0
-887 -470 0
887 470 0
-888 -473 0
888 473 0
-889 -476 0
889 476 0
-890 -479 0
890 479 0
-891 -482 0
891 482 0
-892 -485 0
892 485 0
-893 -488 0
893 488 0
-894 -491 0
894 491 0
-895 -494 0
895 494 0
-896 -497 0
896 497 0
-897 -500 0
897 500 0
-898 -503 0
898 503 0
-899 -506 0
899 506 0
-900 -509 0
900 509 0
-901 -512 0
901 512 0
-902 -515 0
902 515 0
-903 -518 0
903 518 0
-904 -521 0
904 521 0
-905 -524 0
905 524 0
-906 -527 0
906 527 0
-907 -530 0
907 530 0
-908 -533 0
908 533 0
-909 -536 0
909 536 0
-910 -539 0
910 539 0
-911 -542 0
911 542 0
-912 -545 0
912 545 0
-913 -548 0
913 548 0
-914 -551 0
914 551 0
-915 -554 0
915 554 0
-916 -557 0
916 557 0
-917 -560 0
917 560 0
-918 -563 0
918 563 0
-919 -566 0
919 566 0
-920 -569 0
920 569 0
-921 -572 0
921 572 0
-922 -575 0
922 575 0
-923 -578 0
923 578 0
-924 -581 0
924 581 0
-925 -584 0
925 584 0
-926 -587 0
926 587 0
-927 -590 0
927 590 0
-928 -593 0
928 593 0
-929 -596 0
929 596 0
-930 -599 0
930 599 0
-931 -602 0
931 602 0
-932 -605 0
932 605 0
-933 -608 0
933 608 0
-934 -611 0
934 611 0
-935 -614 0
935 614 0
-936 -617 0
936 617 0
-937 -620 0
937 620 0
-938 -623 0
938 623 0
-939 -626 0
939 626 0
-940 -629 0
940 629 0
-941 -632 0
941 632 0
-942 -635 0
942 635 0
-943 -638 0
943 638 0
-944 -640 0
944 640 0
-945 -643 0
945 643 0
-946 -646 0
946 646 0
-947 -649 0
947 649 0
-948 -651 0
948 651 0
-949 -654 0
949 654 0
-950 -657 0
950 657 0
-951 -660 0
951 660 0
-952 -663 0
952 663 0
-953 -666 0
953 666 0
-954 -669 0
954 669 0
-955 -671 0
955 671 0
-956 -674 0
956 674 0
-957 -677 0
957 677 0
-958 -680 0
958 680 0
-959 -683 0
959 683 0
-960 -686 0
960 686 0
-961 -689 0
961 689 0
-962 -691 0
962 691 0
-963 -694 0
963 694 0
695 0
